language Essence 1.3

letting can_fly be
        relation((1, 2), (1, 3), (1, 5), (1, 6), (1, 7), (1, 8), (1, 9), (1, 10), (1, 11), (1, 13), (1, 16), (1, 18),
                 (1, 21), (1, 22), (1, 23), (1, 25), (2, 3), (2, 5), (2, 6), (2, 7), (2, 10), (2, 11), (2, 13), (2, 14),
                 (2, 15), (2, 23), (3, 1), (3, 2), (3, 6), (3, 7), (3, 10), (3, 15), (3, 16), (3, 17), (3, 19), (3, 20),
                 (3, 23), (4, 1), (4, 2), (4, 3), (4, 4), (4, 7), (4, 8), (4, 11), (4, 12), (4, 13), (4, 17), (4, 18),
                 (4, 20), (4, 22), (4, 25), (5, 2), (5, 4), (5, 7), (5, 8), (5, 9), (5, 11), (5, 12), (5, 13), (5, 15),
                 (5, 18), (5, 19), (5, 20), (6, 1), (6, 6), (6, 7), (6, 8), (6, 11), (6, 12), (6, 16), (6, 17), (6, 18),
                 (6, 20), (6, 21), (6, 23), (6, 24), (6, 25), (7, 3), (7, 10), (7, 13), (7, 14), (7, 15), (7, 16),
                 (7, 23), (8, 1), (8, 3), (8, 7), (8, 11), (8, 14), (8, 20), (8, 21), (8, 23), (8, 24), (8, 25), (9, 2),
                 (9, 5), (9, 6), (9, 7), (9, 8), (9, 9), (9, 10), (9, 11), (9, 13), (9, 20), (9, 21), (9, 22), (9, 23),
                 (9, 25), (10, 1), (10, 2), (10, 4), (10, 8), (10, 10), (10, 13), (10, 20), (10, 21), (10, 22), (11, 1),
                 (11, 2), (11, 7), (11, 9), (11, 10), (11, 11), (11, 13), (11, 17), (11, 19), (11, 22), (11, 23),
                 (11, 24), (11, 25), (12, 1), (12, 3), (12, 6), (12, 9), (12, 10), (12, 11), (12, 12), (12, 14),
                 (12, 20), (12, 21), (12, 23), (12, 25), (13, 2), (13, 3), (13, 4), (13, 6), (13, 7), (13, 8), (13, 11),
                 (13, 12), (13, 16), (13, 17), (13, 18), (13, 22), (13, 25), (14, 1), (14, 2), (14, 3), (14, 4),
                 (14, 5), (14, 6), (14, 11), (14, 15), (14, 17), (14, 18), (14, 20))
$ Visualisation for can_fly
$  1  2
$  1  3
$  1  5
$  1  6
$  1  7
$  1  8
$  1  9
$  1 10
$  1 11
$  1 13
$  1 16
$  1 18
$  1 21
$  1 22
$  1 23
$  1 25
$  2  3
$  2  5
$  2  6
$  2  7
$  2 10
$  2 11
$  2 13
$  2 14
$  2 15
$  2 23
$  3  1
$  3  2
$  3  6
$  3  7
$  3 10
$  3 15
$  3 16
$  3 17
$  3 19
$  3 20
$  3 23
$  4  1
$  4  2
$  4  3
$  4  4
$  4  7
$  4  8
$  4 11
$  4 12
$  4 13
$  4 17
$  4 18
$  4 20
$  4 22
$  4 25
$  5  2
$  5  4
$  5  7
$  5  8
$  5  9
$  5 11
$  5 12
$  5 13
$  5 15
$  5 18
$  5 19
$  5 20
$  6  1
$  6  6
$  6  7
$  6  8
$  6 11
$  6 12
$  6 16
$  6 17
$  6 18
$  6 20
$  6 21
$  6 23
$  6 24
$  6 25
$  7  3
$  7 10
$  7 13
$  7 14
$  7 15
$  7 16
$  7 23
$  8  1
$  8  3
$  8  7
$  8 11
$  8 14
$  8 20
$  8 21
$  8 23
$  8 24
$  8 25
$  9  2
$  9  5
$  9  6
$  9  7
$  9  8
$  9  9
$  9 10
$  9 11
$  9 13
$  9 20
$  9 21
$  9 22
$  9 23
$  9 25
$ 10  1
$ 10  2
$ 10  4
$ 10  8
$ 10 10
$ 10 13
$ 10 20
$ 10 21
$ 10 22
$ 11  1
$ 11  2
$ 11  7
$ 11  9
$ 11 10
$ 11 11
$ 11 13
$ 11 17
$ 11 19
$ 11 22
$ 11 23
$ 11 24
$ 11 25
$ 12  1
$ 12  3
$ 12  6
$ 12  9
$ 12 10
$ 12 11
$ 12 12
$ 12 14
$ 12 20
$ 12 21
$ 12 23
$ 12 25
$ 13  2
$ 13  3
$ 13  4
$ 13  6
$ 13  7
$ 13  8
$ 13 11
$ 13 12
$ 13 16
$ 13 17
$ 13 18
$ 13 22
$ 13 25
$ 14  1
$ 14  2
$ 14  3
$ 14  4
$ 14  5
$ 14  6
$ 14 11
$ 14 15
$ 14 17
$ 14 18
$ 14 20

letting carry_in be
        function(1 --> 18, 2 --> 17, 3 --> 13, 4 --> 22, 5 --> 8, 6 --> 25, 7 --> 10, 8 --> 12, 9 --> 21, 10 --> 20,
                 11 --> 14, 12 --> 9, 13 --> 11, 14 --> 19)
letting maint be {1, 3, 4, 5, 6, 15, 17, 18, 21, 22, 23, 24, 25}
letting maint_freq be 5
letting n_flights be 25
letting n_planes be 14
letting network be
        relation((1, 1), (1, 9), (1, 12), (1, 14), (1, 16), (1, 18), (1, 19), (1, 22), (1, 25), (2, 1), (2, 3), (2, 4),
                 (2, 10), (2, 13), (2, 14), (2, 17), (2, 19), (2, 22), (2, 23), (2, 25), (3, 3), (3, 4), (3, 7), (3, 9),
                 (3, 11), (3, 15), (3, 19), (4, 2), (4, 6), (4, 11), (4, 13), (4, 15), (4, 16), (4, 20), (4, 22),
                 (5, 1), (5, 2), (5, 6), (5, 8), (5, 12), (5, 15), (5, 18), (5, 22), (5, 23), (5, 24), (6, 2), (6, 3),
                 (6, 4), (6, 5), (6, 6), (6, 7), (6, 8), (6, 12), (6, 14), (6, 15), (6, 16), (6, 17), (6, 23), (6, 24),
                 (7, 2), (7, 9), (7, 10), (7, 12), (7, 13), (7, 14), (7, 15), (7, 16), (7, 21), (7, 24), (8, 1), (8, 3),
                 (8, 5), (8, 6), (8, 7), (8, 8), (8, 10), (8, 12), (8, 14), (8, 15), (8, 17), (8, 19), (8, 21), (8, 23),
                 (9, 5), (9, 6), (9, 8), (9, 9), (9, 10), (9, 13), (9, 14), (9, 15), (9, 17), (9, 18), (9, 20), (9, 21),
                 (9, 22), (9, 23), (10, 2), (10, 3), (10, 5), (10, 6), (10, 7), (10, 9), (10, 10), (10, 11), (10, 12),
                 (10, 13), (10, 14), (10, 15), (10, 16), (10, 18), (10, 19), (10, 20), (10, 22), (10, 23), (10, 25),
                 (11, 1), (11, 2), (11, 4), (11, 7), (11, 13), (11, 14), (11, 18), (11, 20), (11, 21), (11, 22),
                 (11, 24), (11, 25), (12, 1), (12, 2), (12, 3), (12, 5), (12, 7), (12, 8), (12, 10), (12, 11), (12, 13),
                 (12, 14), (12, 15), (12, 17), (12, 18), (12, 20), (12, 21), (12, 23), (12, 24), (13, 1), (13, 3),
                 (13, 5), (13, 9), (13, 11), (13, 14), (13, 15), (13, 18), (13, 20), (13, 22), (13, 24), (13, 25),
                 (14, 2), (14, 3), (14, 7), (14, 8), (14, 11), (14, 13), (14, 16), (14, 17), (14, 19), (14, 22),
                 (14, 23), (14, 24), (15, 1), (15, 5), (15, 6), (15, 7), (15, 8), (15, 11), (15, 12), (15, 13),
                 (15, 14), (15, 15), (15, 16), (15, 17), (15, 21), (15, 23), (15, 25), (16, 2), (16, 6), (16, 7),
                 (16, 8), (16, 9), (16, 11), (16, 12), (16, 20), (16, 24), (17, 3), (17, 5), (17, 6), (17, 7), (17, 9),
                 (17, 11), (17, 13), (17, 14), (17, 17), (17, 18), (17, 20), (17, 23), (17, 24), (18, 1), (18, 3),
                 (18, 4), (18, 5), (18, 7), (18, 8), (18, 10), (18, 12), (18, 14), (18, 16), (18, 23), (18, 24),
                 (19, 1), (19, 4), (19, 5), (19, 8), (19, 9), (19, 10), (19, 16), (19, 18), (19, 20), (19, 21),
                 (19, 22), (20, 5), (20, 6), (20, 9), (20, 10), (20, 11), (20, 12), (20, 14), (20, 15), (20, 16),
                 (20, 18), (20, 20), (20, 23), (20, 24), (20, 25), (21, 3), (21, 4), (21, 8), (21, 9), (21, 10),
                 (21, 11), (21, 12), (21, 14), (21, 15), (21, 16), (21, 20), (21, 21), (21, 22), (21, 24), (22, 5),
                 (22, 7), (22, 8), (22, 10), (22, 11), (22, 12), (22, 13), (22, 14), (22, 16), (22, 17), (22, 18),
                 (22, 19), (23, 3), (23, 4), (23, 5), (23, 7), (23, 11), (23, 12), (23, 14), (23, 16), (23, 18),
                 (23, 19), (23, 20), (23, 21), (23, 23), (23, 24), (24, 6), (24, 7), (24, 9), (24, 13), (24, 14),
                 (24, 15), (24, 16), (24, 17), (24, 18), (24, 19), (24, 20), (24, 21), (24, 24), (25, 1), (25, 3),
                 (25, 4), (25, 5), (25, 6), (25, 15), (25, 17), (25, 18), (25, 20), (25, 22), (25, 23), (25, 24))
$ Visualisation for network
$  1  1
$  1  9
$  1 12
$  1 14
$  1 16
$  1 18
$  1 19
$  1 22
$  1 25
$  2  1
$  2  3
$  2  4
$  2 10
$  2 13
$  2 14
$  2 17
$  2 19
$  2 22
$  2 23
$  2 25
$  3  3
$  3  4
$  3  7
$  3  9
$  3 11
$  3 15
$  3 19
$  4  2
$  4  6
$  4 11
$  4 13
$  4 15
$  4 16
$  4 20
$  4 22
$  5  1
$  5  2
$  5  6
$  5  8
$  5 12
$  5 15
$  5 18
$  5 22
$  5 23
$  5 24
$  6  2
$  6  3
$  6  4
$  6  5
$  6  6
$  6  7
$  6  8
$  6 12
$  6 14
$  6 15
$  6 16
$  6 17
$  6 23
$  6 24
$  7  2
$  7  9
$  7 10
$  7 12
$  7 13
$  7 14
$  7 15
$  7 16
$  7 21
$  7 24
$  8  1
$  8  3
$  8  5
$  8  6
$  8  7
$  8  8
$  8 10
$  8 12
$  8 14
$  8 15
$  8 17
$  8 19
$  8 21
$  8 23
$  9  5
$  9  6
$  9  8
$  9  9
$  9 10
$  9 13
$  9 14
$  9 15
$  9 17
$  9 18
$  9 20
$  9 21
$  9 22
$  9 23
$ 10  2
$ 10  3
$ 10  5
$ 10  6
$ 10  7
$ 10  9
$ 10 10
$ 10 11
$ 10 12
$ 10 13
$ 10 14
$ 10 15
$ 10 16
$ 10 18
$ 10 19
$ 10 20
$ 10 22
$ 10 23
$ 10 25
$ 11  1
$ 11  2
$ 11  4
$ 11  7
$ 11 13
$ 11 14
$ 11 18
$ 11 20
$ 11 21
$ 11 22
$ 11 24
$ 11 25
$ 12  1
$ 12  2
$ 12  3
$ 12  5
$ 12  7
$ 12  8
$ 12 10
$ 12 11
$ 12 13
$ 12 14
$ 12 15
$ 12 17
$ 12 18
$ 12 20
$ 12 21
$ 12 23
$ 12 24
$ 13  1
$ 13  3
$ 13  5
$ 13  9
$ 13 11
$ 13 14
$ 13 15
$ 13 18
$ 13 20
$ 13 22
$ 13 24
$ 13 25
$ 14  2
$ 14  3
$ 14  7
$ 14  8
$ 14 11
$ 14 13
$ 14 16
$ 14 17
$ 14 19
$ 14 22
$ 14 23
$ 14 24
$ 15  1
$ 15  5
$ 15  6
$ 15  7
$ 15  8
$ 15 11
$ 15 12
$ 15 13
$ 15 14
$ 15 15
$ 15 16
$ 15 17
$ 15 21
$ 15 23
$ 15 25
$ 16  2
$ 16  6
$ 16  7
$ 16  8
$ 16  9
$ 16 11
$ 16 12
$ 16 20
$ 16 24
$ 17  3
$ 17  5
$ 17  6
$ 17  7
$ 17  9
$ 17 11
$ 17 13
$ 17 14
$ 17 17
$ 17 18
$ 17 20
$ 17 23
$ 17 24
$ 18  1
$ 18  3
$ 18  4
$ 18  5
$ 18  7
$ 18  8
$ 18 10
$ 18 12
$ 18 14
$ 18 16
$ 18 23
$ 18 24
$ 19  1
$ 19  4
$ 19  5
$ 19  8
$ 19  9
$ 19 10
$ 19 16
$ 19 18
$ 19 20
$ 19 21
$ 19 22
$ 20  5
$ 20  6
$ 20  9
$ 20 10
$ 20 11
$ 20 12
$ 20 14
$ 20 15
$ 20 16
$ 20 18
$ 20 20
$ 20 23
$ 20 24
$ 20 25
$ 21  3
$ 21  4
$ 21  8
$ 21  9
$ 21 10
$ 21 11
$ 21 12
$ 21 14
$ 21 15
$ 21 16
$ 21 20
$ 21 21
$ 21 22
$ 21 24
$ 22  5
$ 22  7
$ 22  8
$ 22 10
$ 22 11
$ 22 12
$ 22 13
$ 22 14
$ 22 16
$ 22 17
$ 22 18
$ 22 19
$ 23  3
$ 23  4
$ 23  5
$ 23  7
$ 23 11
$ 23 12
$ 23 14
$ 23 16
$ 23 18
$ 23 19
$ 23 20
$ 23 21
$ 23 23
$ 23 24
$ 24  6
$ 24  7
$ 24  9
$ 24 13
$ 24 14
$ 24 15
$ 24 16
$ 24 17
$ 24 18
$ 24 19
$ 24 20
$ 24 21
$ 24 24
$ 25  1
$ 25  3
$ 25  4
$ 25  5
$ 25  6
$ 25 15
$ 25 17
$ 25 18
$ 25 20
$ 25 22
$ 25 23
$ 25 24

